c Random 7-CNF over 30 variables and 210 clauses
c Generated with `cnfgen`
c (C) 2012-2016 Massimo Lauria <lauria.massimo@gmail.com>
c https://massimolauria.github.io/cnfgen
c
c COMMAND LINE: cnfgen --output tmp-7-30-210.dimacs --output-format dimacs randkcnf 7 30 210
c
c sdimacs generated by gen-sdimacs
c
p cnf 30 210
e 16 17 18 19 20 21 22 23 24 25 26 27 28 29 30 0
r 0.37 1 2 3 4 5 6 7 8 9 10 11 12 13 14 15 0
1 6 9 10 15 -16 26 0
-6 9 -10 11 -20 21 24 0
-11 12 -17 -19 -20 -24 28 0
-1 -4 9 -11 -14 -21 23 0
-1 11 -17 19 -20 -21 -27 0
5 9 -11 14 -17 -18 27 0
7 -10 -11 -15 -21 24 27 0
4 5 -6 10 19 28 29 0
4 6 9 11 18 26 27 0
1 4 13 -14 -16 19 21 0
3 -9 -15 -17 21 -22 -27 0
2 8 -14 17 20 23 25 0
2 -7 -12 13 -14 -28 -30 0
-5 10 13 14 22 -25 -26 0
-6 -9 21 22 -26 -29 30 0
6 -11 -14 -16 19 20 21 0
4 10 -12 -15 16 21 -24 0
5 -6 12 14 23 27 30 0
2 6 9 -14 -15 -18 -29 0
7 10 19 -20 -24 -27 -28 0
6 -8 10 14 23 -24 -25 0
4 5 15 -21 -23 26 29 0
6 -9 11 14 -23 27 30 0
8 -9 10 16 18 20 -27 0
-3 6 -11 16 19 -26 27 0
-5 -10 12 20 21 24 25 0
-5 -8 13 20 -22 28 -30 0
4 -10 -11 12 16 18 24 0
1 -11 -17 -18 21 23 26 0
1 2 16 17 -20 23 -29 0
-1 4 -5 -11 15 -17 27 0
1 -2 5 9 10 12 -28 0
8 -11 -13 -14 23 26 -29 0
1 -10 -13 18 22 -27 -29 0
8 -15 -21 23 -27 -28 -30 0
2 -5 -7 8 -10 -19 22 0
7 11 15 16 -19 -21 -26 0
-1 -4 -10 14 15 -16 -25 0
7 10 -13 14 17 -23 -25 0
4 5 -9 -15 -17 -19 -20 0
6 -10 -11 -17 20 23 26 0
2 -8 9 14 17 28 -29 0
-12 15 17 18 -20 -24 26 0
-1 2 3 5 6 -18 -20 0
1 2 -6 -9 -12 23 -26 0
2 -4 -6 -13 -15 -19 30 0
-1 6 18 19 -26 28 -29 0
-7 10 -12 -23 24 26 -28 0
5 -9 -11 19 21 -23 -27 0
-4 6 7 -11 21 -29 30 0
3 8 9 10 14 -16 25 0
1 -7 11 14 -25 -29 -30 0
1 -4 6 8 -11 23 -29 0
-3 4 -5 12 14 -16 -21 0
1 3 9 -11 14 18 -27 0
-2 12 -13 15 16 -18 28 0
4 5 11 13 -24 -27 -29 0
-1 -7 -8 -10 -18 21 26 0
-4 -9 -13 -22 28 -29 30 0
-4 -9 12 -14 -16 18 -20 0
1 -6 8 10 -11 -17 -22 0
-2 6 12 14 18 24 28 0
-6 7 11 -13 18 19 27 0
-3 6 -7 8 -18 20 27 0
3 8 9 -14 17 21 27 0
-4 -7 10 -13 20 22 26 0
-6 -7 -8 12 -13 24 -28 0
4 11 14 20 -24 26 -29 0
5 -10 -13 17 -22 23 -26 0
9 12 15 -18 -22 28 29 0
7 8 -9 13 14 -29 30 0
5 7 11 12 -13 23 29 0
-4 -7 -10 18 19 -21 -29 0
3 8 -9 -21 -25 -29 -30 0
-2 -5 11 -14 20 21 26 0
5 -13 -14 17 -25 26 29 0
-3 4 5 12 -19 20 26 0
-3 -6 -7 -11 17 23 -30 0
-1 -8 9 10 15 -19 24 0
5 -10 -11 -13 -20 29 30 0
2 -9 -10 -19 -20 -23 -30 0
-3 -5 7 11 -15 -19 20 0
6 -7 -8 19 20 21 24 0
1 3 11 -17 -20 -28 29 0
3 -9 12 -19 24 -26 29 0
-1 -3 -5 6 -14 23 -26 0
1 4 -9 18 -21 -24 27 0
3 4 -6 -15 -21 -25 -30 0
1 9 -11 -21 23 24 -28 0
8 -16 19 -20 22 -26 27 0
2 11 -12 14 -17 28 -30 0
-2 6 -7 -11 -17 -20 28 0
-2 -9 13 -21 25 -26 29 0
-9 11 -12 20 -23 24 -30 0
12 -14 -16 -21 24 26 -28 0
-4 8 16 -21 23 -27 29 0
-2 9 14 -17 -19 21 -27 0
-2 -4 -11 -20 23 -29 30 0
-5 8 -14 17 -20 22 -24 0
-2 3 -9 17 21 -26 27 0
-3 5 6 -19 -21 24 -29 0
2 3 -4 9 13 15 21 0
6 -12 13 14 -17 18 -30 0
-1 -3 12 -17 -22 -23 -26 0
-9 12 14 15 -22 23 26 0
-1 -3 -4 -16 22 26 -30 0
-3 -6 7 8 9 -13 -19 0
-2 3 -7 -8 11 17 -23 0
2 3 4 -7 -12 26 28 0
-3 -5 12 14 15 16 22 0
-11 19 -21 -22 23 -29 30 0
4 -5 -12 15 16 -24 -26 0
9 -13 14 20 -21 23 -29 0
-6 -14 -15 -17 -22 -27 28 0
-4 -16 19 23 26 28 29 0
-10 11 16 17 -19 -20 -23 0
3 -10 -14 21 22 24 -25 0
-1 2 3 -9 -12 19 25 0
-1 -7 11 12 -19 25 -30 0
-6 -9 10 -12 -20 -22 -30 0
4 -6 -9 12 -18 19 -22 0
-5 -6 -11 -12 17 25 -30 0
6 8 -18 26 27 29 -30 0
5 -15 -18 20 26 28 29 0
-14 -18 -19 -20 24 -25 -26 0
3 -6 13 15 20 23 -30 0
-7 12 15 -17 18 -20 -22 0
1 -7 9 11 -18 -21 29 0
-4 -7 -8 9 -13 18 27 0
-5 -13 14 17 21 -22 23 0
2 5 -9 -12 14 -15 -29 0
-1 -8 12 -14 17 21 -25 0
-7 -8 12 16 -17 -19 23 0
-10 -12 14 16 19 -21 22 0
1 8 -13 -20 22 24 26 0
7 -10 15 17 -20 -22 -25 0
-2 3 -19 -21 22 -23 -26 0
2 4 10 -15 -23 29 -30 0
-8 -9 12 -13 -23 26 28 0
-2 8 14 -15 -18 -22 24 0
12 13 -20 21 26 -28 -29 0
-1 4 -5 -6 11 -17 26 0
6 -13 -14 -17 24 29 -30 0
-10 13 14 19 20 -26 28 0
8 -9 -10 12 19 21 27 0
1 4 21 23 -26 27 -30 0
2 12 16 -17 25 26 -28 0
6 8 -12 -23 -26 27 -30 0
1 -3 8 15 18 -24 30 0
-2 -13 15 18 -19 21 -27 0
-6 -7 -15 -18 -19 -24 28 0
-2 -7 -8 11 18 24 -29 0
-6 -12 -15 20 22 25 -29 0
-11 17 -24 -25 -27 -28 -30 0
-8 16 -21 23 -28 -29 30 0
-1 -2 -9 -11 13 19 20 0
-3 4 -8 14 16 17 -20 0
-8 -10 -11 -16 18 -19 27 0
1 -2 4 12 25 27 30 0
7 10 -11 12 16 -17 -29 0
7 -10 -13 -20 -21 28 -29 0
-3 4 19 24 -25 28 29 0
-3 6 -7 15 18 21 30 0
-15 -18 -22 -24 25 26 29 0
5 -12 -15 16 -18 -21 29 0
-1 6 -13 15 -17 20 22 0
2 -6 12 -16 -21 -23 30 0
-1 6 14 17 -21 -23 24 0
4 5 8 -12 -17 18 -27 0
-2 -6 7 -9 10 22 23 0
5 7 -12 -15 -23 26 -27 0
-1 7 -14 -18 -22 26 -29 0
1 -2 -12 15 17 25 -28 0
4 -5 -6 -12 15 -20 -29 0
4 -5 7 -12 -14 22 26 0
2 -4 10 13 -21 24 -29 0
-3 11 12 -20 -21 -22 25 0
3 -12 -14 15 20 -22 -26 0
7 11 -12 -19 -23 26 -30 0
2 -5 6 -13 -18 24 25 0
-1 -3 5 7 -15 -20 21 0
1 2 -12 -13 16 -21 -25 0
2 -7 -11 12 -19 20 30 0
-9 10 17 -24 -27 -29 -30 0
-4 -8 -12 18 20 24 -28 0
-3 4 -19 21 -22 26 -29 0
7 13 -14 -20 26 -28 -29 0
-6 -13 14 18 25 -26 -27 0
4 -13 16 19 22 26 -28 0
-3 11 13 -16 -21 -23 -29 0
-3 -4 14 15 16 -19 -30 0
-3 -9 12 -13 15 20 30 0
-1 -8 9 -13 -18 24 26 0
-3 -8 12 16 -20 -21 24 0
2 8 10 20 -22 24 -27 0
3 11 13 -14 19 -20 -23 0
-3 4 12 22 23 -24 -29 0
-3 -4 18 20 21 -22 -24 0
1 -4 -8 13 -15 -21 25 0
7 -8 -14 -19 20 -27 -30 0
4 7 8 16 -17 -23 28 0
-2 -14 19 23 -24 -28 -30 0
2 9 -15 -20 21 -22 24 0
2 -3 -4 5 11 -16 -17 0
-1 6 -8 13 -23 24 -26 0
4 -5 8 -16 -21 28 30 0
6 -9 -10 12 -14 25 -26 0
-2 -4 -11 16 -22 25 -30 0
6 -9 -10 18 19 27 -29 0
1 3 -11 -17 -22 23 -24 0
